130
0 94 121 103 112 19 106 86 96 127 
124 111 67 15 80 88 60 48 78 75 
8 101 120 129 43 74 95 62 73 13 
2 97 117 63 81 107 25 47 20 46 
126 4 9 105 90 82 36 38 39 102 
14 29 70 118 11 76 37 33 49 53 
44 61 109 7 77 59 84 64 108 34 
65 26 57 98 56 92 50 16 10 35 
87 55 22 114 40 125 123 116 51 58 
6 17 23 104 5 28 54 32 27 1 
89 18 30 21 119 85 100 3 42 122 
52 83 128 93 113 41 115 31 66 99 
71 24 68 72 12 110 91 69 45 79 
